Reading model...
...model read.
creating competitive generators file...
...competitive generators recorded.
Loading data...
.. real-time data read.
Compiling instance...
...instance created.
Creating Offer Mitigation (model will solve as dispatch if TRUE)...
...storage offer mitigation file created
Converting model to MPEC...
...converted
NOTE: initial MIP solve with only storage competitive to get feasible solution
Solving...

Welcome to IBM(R) ILOG(R) CPLEX(R) Interactive Optimizer 12.10.0.0
  with Simplex, Mixed Integer & Barrier Optimizers
5725-A06 5725-A29 5724-Y48 5724-Y49 5724-Y54 5724-Y55 5655-Y21
Copyright IBM Corp. 1988, 2019.  All Rights Reserved.

Type 'help' for a list of available commands.
Type 'help' followed by a command name for more
information on commands.

CPLEX> Logfile 'cplex.log' closed.
Logfile 'C:\Users\wenmi\Desktop\competitiveMPEC\logs\tmpvy_se18i.cplex.log' open.
CPLEX> New value for parallel optimization mode: -1
CPLEX> New value for mixed integer optimality gap tolerance: 0.01
CPLEX> New value for feasibility tolerance: 1e-09
CPLEX> New value for deterministic time limit in ticks: 50000
CPLEX> Problem 'C:\Users\wenmi\Desktop\competitiveMPEC\logs\tmpaexvpdxi.pyomo.lp' read.
Read time = 0.31 sec. (27.71 ticks)
CPLEX> Problem name         : C:\Users\wenmi\Desktop\competitiveMPEC\logs\tmpaexvpdxi.pyomo.lp
Objective sense      : Maximize
Variables            :  107781  [Nneg: 1,  Box: 44056,  Free: 8928,
                                 Binary: 54796]
Objective nonzeros   :   17376
Linear constraints   :  246901  [Less: 82866,  Greater: 118424,  Equal: 45611]
  Nonzeros           :  590236
  RHS nonzeros       :  134590

Variables            : Min LB: -5000.000        Max UB: 1000000.       
Objective nonzeros   : Min   : 0.008333333      Max   : 2500.000       
Linear constraints   :
  Nonzeros           : Min   : 0.008333333      Max   : 1000000.       
  RHS nonzeros       : Min   : 0.008333333      Max   : 1000000.       
CPLEX> Version identifier: 12.10.0.0 | 2019-11-26 | 843d4de2ae
CPXPARAM_Parallel                                -1
CPXPARAM_Simplex_Tolerances_Feasibility          1.0000000000000001e-09
CPXPARAM_DetTimeLimit                            50000
CPXPARAM_MIP_Tolerances_MIPGap                   0.01
Tried aggregator 3 times.
MIP Presolve eliminated 181651 rows and 41467 columns.
MIP Presolve added 6047 rows and 0 columns.
MIP Presolve modified 48750 coefficients.
Aggregator did 25836 substitutions.
Reduced MIP has 45461 rows, 38846 columns, and 132150 nonzeros.
Reduced MIP has 15280 binaries, 0 generals, 0 SOSs, and 0 indicators.
Presolve time = 0.34 sec. (330.67 ticks)
Probing fixed 759 vars, tightened 8650 bounds.
Probing time = 0.09 sec. (17.09 ticks)
Tried aggregator 2 times.
Detecting symmetries...
MIP Presolve eliminated 1712 rows and 1520 columns.
MIP Presolve modified 5376 coefficients.
Aggregator did 62 substitutions.
Reduced MIP has 43687 rows, 37264 columns, and 127020 nonzeros.
Reduced MIP has 14520 binaries, 0 generals, 0 SOSs, and 0 indicators.
Presolve time = 0.13 sec. (208.97 ticks)
Probing fixed 1 vars, tightened 542 bounds.
Probing time = 0.19 sec. (25.33 ticks)
Clique table members: 87117.
MIP emphasis: balance optimality and feasibility.
MIP search method: dynamic search.
Parallel mode: opportunistic, using up to 16 threads.
Root relaxation solution time = 0.70 sec. (1777.46 ticks)

        Nodes                                         Cuts/
   Node  Left     Objective  IInf  Best Integer    Best Bound    ItCnt     Gap

      0     0        0.0000   352                      0.0000    10839         
*     0+    0                            0.0000        0.0000             0.00%

Root node processing (before b&c):
  Real time             =    1.89 sec. (2857.29 ticks)
Parallel b&c, 16 threads:
  Real time             =    0.00 sec. (0.00 ticks)
  Sync time (average)   =    0.00 sec.
  Wait time (average)   =    0.00 sec.
                          ------------
Total (root+branch&cut) =    1.89 sec. (2857.29 ticks)

Solution pool: 1 solution saved.

MIP - Integer optimal, tolerance (0.01/1e-06):  Objective =  3.6338860809e-09
Current MIP best bound =  4.1816718976e-09 (gap = 5.47786e-10, 0.00%)
Solution time =    1.89 sec.  Iterations = 10839  Nodes = 0 (1)
Deterministic time = 2857.60 ticks  (1511.96 ticks/sec)

CPLEX> Incumbent solution written to file 'C:\Users\wenmi\Desktop\competitiveMPEC\logs\tmp_946kq_z.cplex.sol'.
CPLEX> NOTE: no warmstart specified for MIP iteration, default behavior is true
NOTE: resolving with all competitive generators using storage-only solution to warmstart
Solving...

Welcome to IBM(R) ILOG(R) CPLEX(R) Interactive Optimizer 12.10.0.0
  with Simplex, Mixed Integer & Barrier Optimizers
5725-A06 5725-A29 5724-Y48 5724-Y49 5724-Y54 5724-Y55 5655-Y21
Copyright IBM Corp. 1988, 2019.  All Rights Reserved.

Type 'help' for a list of available commands.
Type 'help' followed by a command name for more
information on commands.

CPLEX> Logfile 'cplex.log' closed.
Logfile 'C:\Users\wenmi\Desktop\competitiveMPEC\logs\tmpsttli7fh.cplex.log' open.
CPLEX> New value for parallel optimization mode: -1
CPLEX> New value for mixed integer optimality gap tolerance: 0.01
CPLEX> New value for feasibility tolerance: 1e-09
CPLEX> New value for deterministic time limit in ticks: 50000
CPLEX> Problem 'C:\Users\wenmi\Desktop\competitiveMPEC\logs\tmptuktm05c.pyomo.lp' read.
Read time = 0.33 sec. (27.75 ticks)
CPLEX> MIP start file 'C:\Users\wenmi\Desktop\competitiveMPEC\logs\tmpt96ogbze.cplex.mst' read.
CPLEX> Problem name         : C:\Users\wenmi\Desktop\competitiveMPEC\logs\tmptuktm05c.pyomo.lp
Objective sense      : Maximize
Variables            :  109221  [Nneg: 1,  Box: 45496,  Free: 8928,
                                 Binary: 54796]
Objective nonzeros   :   18768
Linear constraints   :  246901  [Less: 82866,  Greater: 118424,  Equal: 45611]
  Nonzeros           :  590236
  RHS nonzeros       :  134590

Variables            : Min LB: -5000.000        Max UB: 1000000.       
Objective nonzeros   : Min   : 0.008333333      Max   : 2500.000       
Linear constraints   :
  Nonzeros           : Min   : 0.008333333      Max   : 1000000.       
  RHS nonzeros       : Min   : 0.008333333      Max   : 1000000.       
CPLEX> Version identifier: 12.10.0.0 | 2019-11-26 | 843d4de2ae
CPXPARAM_Parallel                                -1
CPXPARAM_Simplex_Tolerances_Feasibility          1.0000000000000001e-09
CPXPARAM_DetTimeLimit                            50000
CPXPARAM_MIP_Tolerances_MIPGap                   0.01
1 of 1 MIP starts provided solutions.
MIP start 'm1' defined initial solution with objective 19723.1637.
Tried aggregator 3 times.
MIP Presolve eliminated 181651 rows and 42907 columns.
MIP Presolve added 6047 rows and 0 columns.
MIP Presolve modified 48750 coefficients.
Aggregator did 25836 substitutions.
Reduced MIP has 45461 rows, 38846 columns, and 132150 nonzeros.
Reduced MIP has 15280 binaries, 0 generals, 0 SOSs, and 0 indicators.
Presolve time = 0.34 sec. (331.37 ticks)
Probing fixed 759 vars, tightened 8650 bounds.
Probing time = 0.08 sec. (17.09 ticks)
Tried aggregator 2 times.
Detecting symmetries...
MIP Presolve eliminated 1712 rows and 1520 columns.
MIP Presolve modified 5376 coefficients.
Aggregator did 62 substitutions.
Reduced MIP has 43687 rows, 37264 columns, and 127020 nonzeros.
Reduced MIP has 14520 binaries, 0 generals, 0 SOSs, and 0 indicators.
Presolve time = 0.13 sec. (208.98 ticks)
Probing fixed 1 vars, tightened 497 bounds.
Probing time = 0.16 sec. (23.17 ticks)
Clique table members: 87588.
MIP emphasis: balance optimality and feasibility.
MIP search method: dynamic search.
Parallel mode: opportunistic, using up to 16 threads.
Root relaxation solution time = 0.61 sec. (1800.35 ticks)

        Nodes                                         Cuts/
   Node  Left     Objective  IInf  Best Integer    Best Bound    ItCnt     Gap

*     0+    0                        19723.1637   1.21441e+07              --- 
      0     0    19758.6158   427    19723.1637    19758.6158    10104    0.18%

Root node processing (before b&c):
  Real time             =    1.88 sec. (2915.54 ticks)
Parallel b&c, 16 threads:
  Real time             =    0.00 sec. (0.00 ticks)
  Sync time (average)   =    0.00 sec.
  Wait time (average)   =    0.00 sec.
                          ------------
Total (root+branch&cut) =    1.88 sec. (2915.54 ticks)

Solution pool: 1 solution saved.

MIP - Integer optimal, tolerance (0.01/1e-06):  Objective =  1.9723163746e+04
Current MIP best bound =  1.9758615783e+04 (gap = 35.452, 0.18%)
Solution time =    1.88 sec.  Iterations = 10104  Nodes = 0 (1)
Deterministic time = 2915.85 ticks  (1555.12 ticks/sec)

CPLEX> Incumbent solution written to file 'C:\Users\wenmi\Desktop\competitiveMPEC\logs\tmpsye7ndt9.cplex.sol'.
CPLEX> Exporting results... 
